NAME: tsp15_30
COMMENT: 15-tsp problem (Padberg/Rinaldi)
TYPE: TSP
DIMENSION: 15
EDGE_WEIGHT_TYPE : EUC_2D
NODE_COORD_SECTION
1 6 19
2 10 9
3 10 2
4 23 3
5 11 31
6 33 30
7 23 22
8 30 37
9 3 4
10 16 27
11 34 2
12 35 7
13 12 8
14 39 3
15 4 33
